(set-logic ALL)
(declare-fun i4 () Int)
(declare-fun i1 () Int)
(declare-fun i3 () Int)
(declare-fun it819 () Int)
(declare-fun i2 () Int)
(declare-fun it820 () Int)
(declare-fun it821 () Int)
(declare-fun it822 () Int)
(declare-fun it823 () Int)
(declare-fun it824 () Int)
(declare-fun it825 () Int)
(declare-fun it826 () Int)
(declare-fun it827 () Int)
(declare-fun it828 () Int)
(declare-fun it829 () Int)
(declare-fun it830 () Int)
(declare-fun it134 () Int)
(declare-fun it835 () Int)
(declare-fun it836 () Int)
(declare-fun it837 () Int)
(declare-fun it838 () Int)
(declare-fun it839 () Int)
(declare-fun it840 () Int)
(declare-fun it88 () Int)
(declare-fun it935 () Int)
(declare-fun it936 () Int)
(declare-fun it937 () Int)
(declare-fun it938 () Int)
(declare-fun it939 () Int)
(declare-fun it940 () Int)
(declare-fun it966 () Int)
(declare-fun it967 () Int)
(declare-fun it968 () Int)
(declare-fun it969 () Int)
(declare-fun it970 () Int)
(declare-fun it971 () Int)
(assert (and (>= (+ i3 (- 2)) 0) (= (+ i1 (- 1)) 0) (>= (+ i4 (- 2)) 0)))
(assert (= (+ it819 (- 3)) 0))
(assert (= (+ it820 (* i2 (- 1)) (- 2)) 0))
(assert (= (+ it821 (* i3 (- 1)) 1) 0))
(assert (= (+ (* i4 (- 1)) it822) 0))
(assert (= (+ (* i3 (- 1)) it823 1) 0))
(assert (= (+ it824 (* i3 (- 2)) 2) 0))
(assert (let ((a!1 (>= (+ (+ (* it824 (- 1)) it822) (- 1)) 0)))
  (and (>= (+ it822 (- 2)) 0)
       (>= (+ it819 (- 3)) 0)
       (>= (+ it821 (- 1)) 0)
       (<= (+ (* it824 (- 1)) (* it821 2) (- 2)) 0)
       a!1
       (>= (+ (* it819 (- 1)) 3) 0)
       (>= (+ it821 (- 2)) 0)
       (>= (+ (* it824 (- 1)) it822) 0)
       (>= 1 0)
       (>= 0 0))))
(assert (= (+ it825 (* it819 (- 1))) 0))
(assert (= (+ (* it820 (- 1)) (* it821 (- 3)) it826 3) 0))
(assert (= (+ it827 (- 1)) 0))
(assert (= (+ it828 (* it822 (- 1))) 0))
(assert (= (+ it829 (- 1)) 0))
(assert (= (+ it830 (- 2)) 0))
(assert (let ((a!1 (+ (* (+ 0 it830) (exp 2 (+ it134 (- 1))) (+ 0 (- 1)))
              (+ 0 it828)
              (* (exp 2 it134) (+ 0 (- 1)))))
      (a!2 (>= (+ (+ (* it830 (- 1)) it828) (- 1)) 0)))
  (and (>= (+ it134 (- 1)) 0)
       (>= (+ it830 (- 1)) 0)
       (>= (+ a!1 (+ 0 2)) (+ 0 0))
       (>= (+ (* it830 (- 1)) it828) 0)
       (>= (+ (* it825 (- 1)) 3) 0)
       (>= (+ it825 (- 3)) 0)
       a!2
       (>= (+ a!1 (+ 0 1)) (+ 0 0)))))
(assert (= (+ it835 (* it825 (- 1))) 0))
(assert (= (+ it836 (* it134 (- 1)) (* it826 (- 1))) 0))
(assert (= (+ (* it827 (- 1)) it837) 0))
(assert (= (+ it838 (* it828 (- 1))) 0))
(assert (let ((a!1 (+ (* (+ 0 it830) (exp 2 (+ it134 (- 1))) (+ 0 (- 1)))
              (+ 0 it839)
              (* (exp 2 it134) (+ 0 (- 1)))
              (+ 0 1))))
  (= a!1 (+ 0 0))))
(assert (let ((a!1 (+ (* (exp 2 (+ it134 1)) (+ 0 (- 1)))
              (+ 0 it840)
              (* (+ 0 it830) (exp 2 it134) (+ 0 (- 1)))
              (+ 0 2))))
  (= a!1 (+ 0 0))))
(assert (let ((a!1 (>= (+ (+ it838 (* it840 (- 1))) (- 1)) 0))
      (a!2 (>= (+ (+ it838 (* it88 (- 1))) (* it837 (- 2))) 0))
      (a!3 (>= (+ (+ it838 (* it88 (- 1))) (- 2)) 0))
      (a!4 (>= (+ (+ it838 (* it88 (- 1))) (- 1)) 0))
      (a!5 (+ (+ (+ it838 (* it88 (- 1))) (* it837 (- 2))) 1)))
  (and (>= (+ it838 (- 3)) 0)
       a!1
       (>= (+ it837 (- 1)) 0)
       a!2
       (>= (+ it838 (- 2)) 0)
       (>= (+ (* it837 (- 1)) 1) 0)
       a!3
       (>= (+ (* it835 (- 1)) 3) 0)
       (>= (+ it835 (- 3)) 0)
       (>= (+ it838 (* it840 (- 1))) 0)
       (>= (+ it88 (- 1)) 0)
       a!4
       (>= a!5 0))))
(assert (= (+ (* it835 (- 1)) it935) 0))
(assert (= (+ (* it88 (- 3)) (* it836 (- 1)) it936) 0))
(assert (= (+ it937 (* it837 (- 1))) 0))
(assert (= (+ (* it838 (- 1)) it88 it938) 0))
(assert (= (+ (* it837 (- 1)) it939) 0))
(assert (= (+ it940 (* it837 (- 2))) 0))
(assert (let ((a!1 (>= (+ (+ (* it940 (- 1)) it938) (- 1)) 0)))
  (and (>= (+ (* it940 (- 1)) it938) 0) a!1 (= (+ it935 (- 3)) 0))))
(assert (= (+ it966 (- 4)) 0))
(assert (= (+ it967 (* it936 (- 1)) (- 1)) 0))
(assert (= (+ (* it937 (- 1)) it968) 0))
(assert (= (+ it969 (* it938 (- 1))) 0))
(assert (= (+ it970 (* it939 (- 1))) 0))
(assert (= (+ (* it940 (- 1)) it971) 0))
(assert (and (>= (+ it968 (- 2)) 0)
     (>= (+ it968 (- 1)) 0)
     (= (+ it966 (- 4)) 0)
     (>= (+ it969 (- 2)) 0)))
(check-sat)
